certificates/rado_a9_c97_N18.cnf
c Rad2 upper bound instance: x1 + 9*x2 - x3 = 97, interval [1,18]
p cnf 18 72
1 3 11 0
-1 -3 -11 0
1 12 0
-1 -12 0
2 4 11 0
-2 -4 -11 0
2 12 13 0
-2 -12 -13 0
3 5 11 0
-3 -5 -11 0
3 12 14 0
-3 -12 -14 0
4 6 11 0
-4 -6 -11 0
4 12 15 0
-4 -12 -15 0
5 7 11 0
-5 -7 -11 0
5 12 16 0
-5 -12 -16 0
6 8 11 0
-6 -8 -11 0
6 12 17 0
-6 -12 -17 0
7 9 11 0
-7 -9 -11 0
7 12 18 0
-7 -12 -18 0
1 8 10 0
-1 -8 -10 0
8 10 11 0
-8 -10 -11 0
2 9 10 0
-2 -9 -10 0
9 11 0
-9 -11 0
3 10 0
-3 -10 0
10 11 12 0
-10 -11 -12 0
4 10 11 0
-4 -10 -11 0
11 13 0
-11 -13 0
5 10 12 0
-5 -10 -12 0
11 12 14 0
-11 -12 -14 0
6 10 13 0
-6 -10 -13 0
11 13 15 0
-11 -13 -15 0
7 10 14 0
-7 -10 -14 0
11 14 16 0
-11 -14 -16 0
8 10 15 0
-8 -10 -15 0
11 15 17 0
-11 -15 -17 0
9 10 16 0
-9 -10 -16 0
11 16 18 0
-11 -16 -18 0
1 9 17 0
-1 -9 -17 0
10 17 0
-10 -17 0
2 9 18 0
-2 -9 -18 0
10 11 18 0
-10 -11 -18 0
