certificates/rado_a9_c97_N18.drat
-16 10 -18 0
10 -18 0
d -16 10 -18 0
-18 0
16 -10 0
-10 0
3 0
17 0
11 0
-9 0
-13 0
-15 0
-1 0
-5 0
2 0
16 0
6 0
8 0
12 0
-4 0
-14 0
0
